unsat
(define-fun inv ((x Int) (y Int) (k Int) (z Int) (c Int)) Bool (let ((_let_1 (- 1))) (let ((_let_2 (* _let_1 z))) (or (<= (+ (* _let_1 k) (* 1 k)) (- 1)) (<= (+ _let_2 _let_2) (- 1))))))
0.66user 0.00system 0:00.66elapsed 99%CPU (0avgtext+0avgdata 32412maxresident)k
8inputs+8outputs (0major+2662minor)pagefaults 0swaps
